p tw 2921 3735
1 112
1 2811
2 13
2 2911
3 4
3 12
3 2921
4 5
4 11
5 6
6 7
7 8
8 9
9 10
10 11
11 12
12 14
13 24
14 15
15 16
15 2920
16 17
16 2919
17 18
17 2918
18 19
18 2917
19 20
19 2916
20 21
20 2915
21 22
21 2914
22 23
23 25
24 35
25 26
26 27
27 28
27 39
28 29
28 38
29 30
29 37
30 31
31 32
32 33
33 34
34 36
35 46
36 37
37 38
38 39
39 40
40 41
41 42
42 43
43 44
43 234
44 45
44 233
45 47
45 232
46 57
46 2712
47 48
47 231
48 49
49 50
49 230
50 51
50 229
51 52
51 228
52 53
53 54
54 55
55 56
55 222
56 58
56 221
57 68
57 2701
58 59
58 220
59 60
59 206
60 61
60 205
61 62
61 204
62 63
63 64
64 65
65 66
65 219
66 67
67 69
67 218
68 79
68 2689
69 70
69 217
70 71
70 216
71 72
71 215
72 73
72 214
73 74
73 213
74 75
75 76
76 77
77 78
78 80
79 90
79 2678
80 81
80 208
81 82
82 83
83 84
84 85
85 86
86 87
86 191
87 88
87 189
88 89
89 91
90 101
90 2667
91 92
91 187
92 93
92 186
93 94
93 185
94 95
94 184
95 96
95 183
96 97
96 182
97 98
97 181
98 99
98 180
99 100
99 178
100 102
100 177
101 113
101 2656
102 103
103 104
104 105
105 106
106 107
107 108
107 1978
108 109
109 110
109 173
110 111
110 172
111 114
111 171
112 223
113 124
114 115
114 170
115 116
115 169
116 117
117 118
117 143
118 119
118 142
119 120
119 141
120 121
121 122
122 123
122 138
123 125
123 137
124 135
125 126
125 136
126 127
127 128
128 129
129 130
130 131
131 132
132 133
133 134
134 136
135 146
136 137
137 138
138 139
139 140
140 141
141 142
142 143
143 144
144 145
145 147
146 157
146 2434
147 148
148 149
149 150
150 151
150 153
150 166
151 152
152 153
152 165
153 154
154 155
154 164
155 156
155 163
156 158
157 168
157 2423
158 159
159 160
160 161
161 162
162 163
163 164
164 165
165 166
166 167
167 169
168 179
168 2412
169 170
170 171
171 172
172 173
173 174
174 175
175 176
176 177
177 178
178 180
179 190
180 181
181 182
182 183
183 184
184 185
185 186
186 187
187 188
188 189
189 191
190 201
191 192
192 193
193 194
194 195
195 196
196 197
197 198
198 199
199 200
200 202
201 212
202 203
203 204
204 205
205 206
206 207
207 208
208 209
209 210
210 211
211 213
212 224
213 214
214 215
215 216
216 217
217 218
218 219
219 220
220 221
221 222
222 225
223 334
224 235
224 323
225 226
226 227
227 228
228 229
229 230
230 231
231 232
232 233
233 234
234 236
235 246
235 312
236 237
236 253
237 238
237 252
238 239
238 251
239 240
239 250
240 241
240 249
241 242
241 248
242 243
242 247
243 244
244 245
245 247
246 257
246 301
247 248
248 249
249 250
250 251
251 252
252 253
253 254
254 255
255 256
256 258
257 268
258 259
259 260
259 2772
260 261
260 2771
261 262
261 2770
262 263
262 2769
263 264
263 2768
264 265
264 2766
265 266
265 324
266 267
266 322
267 269
267 320
268 279
269 270
269 319
270 271
270 318
271 272
271 317
272 273
272 316
273 274
274 275
275 276
276 277
276 311
277 278
277 310
278 280
279 290
280 281
281 282
282 283
283 284
284 285
285 286
285 306
286 287
286 305
287 288
287 304
288 289
288 303
289 291
289 302
290 301
291 292
292 293
292 299
293 294
293 298
294 295
295 296
296 297
297 298
298 299
299 300
300 302
300 2469
301 312
302 303
303 304
304 305
305 306
306 307
307 308
308 309
309 310
310 311
311 313
312 323
313 314
314 315
315 316
316 317
317 318
318 319
319 320
320 321
321 322
322 324
323 335
324 325
325 326
326 327
327 328
328 329
329 330
330 331
330 2510
331 332
331 2509
332 333
332 2508
333 336
333 2507
334 445
335 346
335 545
336 337
336 2506
337 338
337 2505
338 339
338 1163
339 340
340 341
341 342
342 343
343 344
344 345
345 347
345 1157
346 357
346 534
347 348
347 1155
348 349
349 350
350 351
351 352
352 353
352 372
353 354
353 371
354 355
354 370
355 356
355 369
356 358
356 367
357 368
357 523
358 359
358 366
359 360
360 361
361 362
362 363
363 364
364 365
365 366
366 367
367 369
368 379
368 512
369 370
370 371
371 372
372 373
373 374
373 768
374 375
374 766
375 376
375 765
376 377
376 764
377 378
378 380
379 390
379 501
380 381
381 382
382 383
382 746
383 384
383 744
384 385
384 743
385 386
386 387
387 388
388 389
388 724
389 391
389 722
390 401
390 490
391 392
392 393
393 394
393 721
394 395
394 420
395 396
395 419
396 397
396 418
397 398
397 417
398 399
398 416
399 400
399 415
400 402
401 412
401 479
402 403
403 404
404 405
404 413
405 406
405 411
406 407
407 408
408 409
409 410
410 411
411 413
412 423
413 414
414 415
415 416
416 417
417 418
418 419
419 420
420 421
421 422
422 424
423 434
424 425
425 426
426 427
426 494
427 428
427 493
428 429
428 719
429 430
429 718
430 431
430 717
431 432
431 716
432 433
433 435
433 469
434 446
435 436
435 467
436 437
437 438
437 466
438 439
439 440
439 463
440 441
440 462
441 442
441 461
442 443
443 444
444 447
445 556
446 457
447 448
447 456
448 449
448 455
449 450
449 454
450 451
451 452
452 453
453 454
454 455
455 456
456 458
457 468
458 459
459 460
460 461
461 462
462 463
463 464
464 465
465 466
466 467
467 469
468 479
469 470
470 471
471 472
472 473
473 474
473 492
474 475
474 491
475 476
475 489
476 477
476 488
477 478
477 487
478 480
479 490
480 481
481 482
482 483
483 484
484 485
485 486
486 487
487 488
488 489
489 491
490 501
491 492
492 493
493 494
494 495
495 496
495 715
496 497
496 714
497 498
497 713
498 499
498 711
499 500
499 710
500 502
501 512
502 503
502 709
503 504
503 708
504 505
504 707
505 506
505 706
506 507
506 705
507 508
507 704
508 509
509 510
510 511
511 513
512 523
513 514
514 515
515 516
515 700
516 517
516 699
517 518
518 519
519 520
520 521
520 696
521 522
521 695
522 524
522 694
523 534
524 525
524 693
525 526
526 527
527 528
528 529
529 530
529 682
530 531
530 681
531 532
531 680
532 533
532 678
533 535
534 545
535 536
536 537
536 674
537 538
537 673
538 539
538 672
539 540
540 541
541 542
541 666
542 543
542 665
543 544
543 664
544 546
545 557
546 547
546 662
547 548
548 549
548 570
549 550
549 569
550 551
550 567
551 552
552 553
552 565
553 554
553 563
554 555
555 558
556 667
556 2447
557 568
558 559
559 560
560 561
560 1925
561 562
562 563
563 564
564 565
565 566
566 567
567 569
568 579
568 867
569 570
570 571
571 572
572 573
572 637
573 574
573 636
574 575
575 576
576 577
576 631
577 578
578 580
579 590
579 856
580 581
581 582
582 583
583 584
584 585
584 624
585 586
585 622
586 587
586 621
587 588
587 620
588 589
589 591
589 615
590 601
590 834
591 592
591 614
592 593
592 613
593 594
593 610
594 595
594 609
595 596
595 609
596 597
596 608
597 598
598 599
598 607
599 600
599 606
600 602
601 612
601 823
602 603
603 604
604 605
605 606
606 607
607 608
608 609
609 610
610 611
611 613
612 623
612 812
613 614
614 615
615 616
616 617
617 618
618 619
619 620
620 621
621 622
622 624
623 634
623 801
624 625
625 626
626 627
627 628
628 629
629 630
630 631
631 632
632 633
633 635
634 645
634 790
635 636
636 637
637 638
638 639
638 661
639 640
640 641
641 642
641 657
642 643
642 655
643 644
644 646
645 656
645 779
646 647
647 648
648 649
649 650
650 651
651 652
652 653
653 654
654 655
655 657
656 668
656 767
657 658
658 659
659 660
660 661
661 662
662 663
663 664
664 665
665 666
666 669
667 778
667 2446
668 679
669 670
670 671
671 672
672 673
673 674
674 675
675 676
676 677
677 678
678 680
679 690
680 681
681 682
682 683
683 684
683 686
684 685
685 686
686 687
687 688
688 689
689 691
690 701
691 692
692 693
693 694
694 695
695 696
696 697
697 698
698 699
699 700
700 702
701 712
702 703
703 704
704 705
705 706
706 707
707 708
708 709
709 710
710 711
711 713
712 723
713 714
714 715
715 716
716 717
717 718
718 719
719 720
720 721
721 722
722 724
723 734
724 725
725 726
726 727
727 728
728 729
729 730
730 731
730 740
731 732
731 739
732 733
733 735
734 745
735 736
736 737
737 738
738 739
739 740
740 741
741 742
742 743
743 744
744 746
745 756
746 747
747 748
748 749
748 761
749 750
749 760
750 751
750 759
751 752
751 758
752 753
753 754
754 755
755 757
756 767
757 758
758 759
759 760
760 761
761 762
762 763
763 764
764 765
765 766
766 768
767 779
768 769
769 770
770 771
771 772
771 1154
772 773
772 1153
773 774
773 1152
774 775
774 1151
775 776
776 777
777 780
778 889
778 2444
779 790
780 781
781 782
781 1149
782 783
782 1148
783 784
783 1147
784 785
784 1146
785 786
785 1144
786 787
786 1143
787 788
787 1142
788 789
788 1141
789 791
790 801
791 792
791 1139
792 793
792 1138
793 794
794 795
795 796
795 1137
796 797
797 798
798 799
799 800
800 802
800 1133
801 812
802 803
803 804
804 805
805 806
806 807
807 808
808 809
809 810
809 836
810 811
810 835
811 813
811 833
812 823
813 814
813 832
814 815
814 831
815 816
816 817
817 818
818 819
819 820
819 825
820 821
821 822
821 954
822 824
823 834
824 825
825 826
826 827
827 828
828 829
829 830
830 831
831 832
832 833
833 835
834 845
835 836
836 837
837 838
837 868
838 839
838 866
839 840
839 865
840 841
840 864
841 842
841 863
842 843
843 844
844 846
845 856
846 847
847 848
847 859
848 849
848 858
849 850
849 857
850 851
850 855
851 852
852 853
853 854
854 855
855 857
856 867
857 858
858 859
859 860
860 861
861 862
862 863
863 864
864 865
865 866
866 868
867 878
868 869
869 870
869 873
870 871
871 872
872 873
873 874
874 875
875 876
876 877
877 879
878 890
879 880
880 881
881 882
882 883
882 1131
883 884
883 1130
884 885
884 1129
885 886
885 1128
886 887
886 1127
887 888
887 1126
888 891
888 1125
889 1000
889 2443
890 901
890 2334
891 892
891 1122
892 893
892 1121
893 894
894 895
894 2674
895 896
896 897
896 909
897 898
897 908
898 899
899 900
900 902
901 912
901 2323
902 903
903 904
904 905
905 906
906 907
907 908
908 909
909 910
910 911
911 913
912 923
913 914
914 915
914 952
915 916
915 951
916 917
916 950
917 918
917 949
918 919
918 948
919 920
919 947
920 921
920 946
921 922
922 924
923 934
924 925
925 926
926 927
927 928
927 937
928 929
928 936
929 930
929 935
930 931
931 932
932 933
933 935
934 945
935 936
936 937
937 938
938 939
939 940
940 941
940 1381
941 942
942 943
943 944
944 946
945 956
946 947
947 948
948 949
949 950
950 951
951 952
952 953
953 954
954 955
955 957
955 1117
956 967
956 1300
957 958
957 1116
958 959
958 1115
959 960
959 1114
960 961
961 962
961 1039
962 963
962 1038
963 964
963 1037
964 965
965 966
966 968
966 1036
967 978
967 1278
968 969
968 1035
969 970
969 1031
970 971
970 1030
971 972
971 1029
972 973
972 1028
973 974
973 1027
974 975
975 976
976 977
976 1026
977 979
977 1025
978 989
978 1267
979 980
979 1024
980 981
981 982
982 983
983 984
983 1019
984 985
984 1018
985 986
986 987
987 988
988 990
988 1014
989 1001
989 1256
990 991
990 1013
991 992
991 1011
992 993
992 1010
993 994
993 1009
994 995
995 996
996 997
996 1005
997 998
997 1004
998 999
999 1002
1000 1111
1000 2442
1001 1012
1001 1245
1002 1003
1003 1004
1004 1005
1005 1006
1006 1007
1007 1008
1008 1009
1009 1010
1010 1011
1011 1013
1012 1023
1012 1234
1013 1014
1014 1015
1015 1016
1016 1017
1017 1018
1018 1019
1019 1020
1020 1021
1021 1022
1022 1024
1023 1034
1024 1025
1025 1026
1026 1027
1027 1028
1028 1029
1029 1030
1030 1031
1031 1032
1032 1033
1033 1035
1034 1045
1035 1036
1036 1037
1037 1038
1038 1039
1039 1040
1040 1041
1040 1060
1041 1042
1041 1059
1042 1043
1042 1058
1043 1044
1043 1057
1044 1046
1044 1055
1045 1056
1046 1047
1046 1054
1047 1048
1048 1049
1049 1050
1050 1051
1051 1052
1052 1053
1053 1054
1054 1055
1055 1057
1056 1067
1057 1058
1058 1059
1059 1060
1060 1061
1061 1062
1062 1063
1063 1064
1064 1065
1065 1066
1066 1068
1067 1078
1068 1069
1069 1070
1070 1071
1070 1107
1071 1072
1071 1104
1072 1073
1073 1074
1073 1081
1074 1075
1075 1076
1076 1077
1077 1079
1078 1089
1078 1156
1079 1080
1080 1081
1081 1082
1082 1083
1083 1084
1083 1101
1084 1085
1084 1099
1085 1086
1085 1098
1086 1087
1086 1097
1087 1088
1087 1096
1088 1090
1088 1095
1089 1100
1090 1091
1091 1092
1092 1093
1093 1094
1094 1095
1095 1096
1096 1097
1097 1098
1098 1099
1099 1101
1100 1112
1101 1102
1102 1103
1103 1104
1104 1105
1105 1106
1106 1107
1107 1108
1108 1109
1109 1110
1110 1113
1111 1222
1111 2441
1112 1123
1113 1114
1114 1115
1115 1116
1116 1117
1117 1118
1118 1119
1119 1120
1120 1121
1121 1122
1122 1124
1123 1134
1123 1678
1124 1125
1125 1126
1126 1127
1127 1128
1128 1129
1129 1130
1130 1131
1131 1132
1132 1133
1133 1135
1134 1145
1135 1136
1136 1137
1136 1140
1137 1138
1138 1139
1139 1140
1140 1141
1141 1142
1142 1143
1143 1144
1144 1146
1145 1156
1145 2294
1146 1147
1147 1148
1148 1149
1149 1150
1150 1151
1151 1152
1152 1153
1153 1154
1154 1155
1155 1157
1156 1167
1157 1158
1158 1159
1159 1160
1160 1161
1161 1162
1162 1163
1163 1164
1164 1165
1164 2453
1165 1166
1165 1183
1166 1168
1166 1182
1167 1178
1168 1169
1169 1170
1170 1171
1170 1188
1171 1172
1171 1187
1172 1173
1172 1186
1173 1174
1173 1185
1174 1175
1174 1184
1175 1176
1176 1177
1177 1179
1178 1189
1179 1180
1180 1181
1181 1182
1181 2486
1182 1183
1183 1184
1184 1185
1185 1186
1186 1187
1187 1188
1188 1190
1189 1200
1190 1191
1191 1192
1192 1193
1192 1838
1193 1194
1193 1837
1194 1195
1194 1836
1195 1196
1195 1835
1196 1197
1196 1834
1197 1198
1197 1832
1198 1199
1198 1831
1199 1201
1199 1830
1200 1211
1201 1202
1202 1203
1202 1829
1203 1204
1203 1828
1204 1205
1204 1827
1205 1206
1206 1207
1206 1824
1207 1208
1207 1823
1208 1209
1209 1210
1210 1212
1211 1223
1212 1213
1213 1214
1214 1215
1215 1216
1215 1639
1216 1217
1216 1638
1217 1218
1217 1637
1218 1219
1218 1636
1219 1220
1220 1221
1220 1635
1221 1224
1221 1634
1222 1333
1222 2440
1223 1234
1224 1225
1224 1630
1225 1226
1225 1629
1226 1227
1226 1628
1227 1228
1227 1627
1228 1229
1229 1230
1230 1231
1230 1414
1231 1232
1231 1413
1232 1233
1232 1412
1233 1235
1233 1410
1234 1245
1235 1236
1235 1409
1236 1237
1237 1238
1237 1406
1238 1239
1238 1405
1239 1240
1239 1404
1240 1241
1240 1403
1241 1242
1241 1402
1242 1243
1242 1401
1243 1244
1243 1399
1244 1246
1244 1398
1245 1256
1246 1247
1246 1397
1247 1248
1248 1249
1248 1362
1249 1250
1249 1361
1250 1251
1250 1360
1251 1252
1252 1253
1253 1254
1254 1255
1255 1257
1256 1267
1257 1258
1258 1259
1259 1260
1260 1261
1261 1262
1262 1263
1263 1264
1264 1265
1265 1266
1266 1268
1267 1278
1268 1269
1269 1270
1270 1271
1271 1272
1272 1273
1273 1274
1274 1275
1275 1276
1276 1277
1277 1279
1278 1289
1279 1280
1280 1281
1281 1282
1282 1283
1283 1284
1284 1285
1285 1286
1286 1287
1287 1288
1288 1290
1289 1300
1290 1291
1291 1292
1292 1293
1293 1294
1294 1295
1295 1296
1296 1297
1297 1298
1298 1299
1299 1301
1300 1311
1301 1302
1302 1303
1303 1304
1304 1305
1305 1306
1306 1307
1307 1308
1308 1309
1309 1310
1310 1312
1311 1322
1312 1313
1313 1314
1314 1315
1315 1316
1316 1317
1317 1318
1318 1319
1319 1320
1320 1321
1321 1323
1322 1334
1323 1324
1324 1325
1325 1326
1326 1327
1327 1328
1328 1329
1329 1330
1330 1331
1331 1332
1332 1335
1333 1444
1333 2439
1334 1345
1335 1336
1336 1337
1337 1338
1338 1339
1339 1340
1340 1341
1341 1342
1342 1343
1343 1344
1344 1346
1345 1356
1346 1347
1347 1348
1348 1349
1349 1350
1350 1351
1351 1352
1352 1353
1353 1354
1354 1355
1355 1357
1356 1367
1357 1358
1358 1359
1359 1360
1360 1361
1361 1362
1362 1363
1363 1364
1364 1365
1365 1366
1366 1368
1367 1378
1368 1369
1368 1391
1369 1370
1369 1390
1370 1371
1371 1372
1371 1388
1372 1373
1372 1387
1373 1374
1373 1386
1374 1375
1374 1385
1375 1376
1375 1384
1376 1377
1376 1383
1377 1379
1378 1389
1379 1380
1380 1381
1381 1382
1382 1383
1383 1384
1384 1385
1385 1386
1386 1387
1387 1388
1388 1390
1389 1400
1390 1391
1391 1392
1392 1393
1393 1394
1394 1395
1395 1396
1396 1397
1397 1398
1398 1399
1399 1401
1400 1411
1401 1402
1402 1403
1403 1404
1404 1405
1405 1406
1406 1407
1407 1408
1408 1409
1409 1410
1410 1412
1411 1422
1411 1489
1412 1413
1413 1414
1414 1415
1415 1416
1416 1417
1417 1418
1417 1430
1418 1419
1418 1429
1419 1420
1419 1428
1420 1421
1421 1423
1422 1433
1422 1478
1423 1424
1424 1425
1425 1426
1426 1427
1427 1428
1427 1450
1428 1429
1429 1430
1430 1431
1431 1432
1431 1457
1432 1434
1432 1455
1433 1445
1434 1435
1434 1454
1435 1436
1435 1453
1436 1437
1436 1452
1437 1438
1437 1451
1438 1439
1439 1440
1440 1441
1441 1442
1442 1443
1443 1446
1444 1555
1444 2438
1445 1456
1446 1447
1447 1448
1448 1449
1449 1450
1450 1451
1451 1452
1452 1453
1453 1454
1454 1455
1455 1457
1456 1467
1457 1458
1458 1459
1458 1618
1459 1460
1459 1505
1460 1461
1460 1571
1461 1462
1461 1570
1462 1463
1463 1464
1464 1465
1465 1466
1465 1525
1466 1468
1466 1524
1467 1478
1468 1469
1468 1523
1469 1470
1469 1521
1470 1471
1470 1520
1471 1472
1471 1519
1472 1473
1472 1518
1473 1474
1474 1475
1474 1501
1475 1476
1476 1477
1476 1496
1477 1479
1477 1495
1478 1489
1479 1480
1479 1494
1479 1495
1480 1481
1480 1493
1481 1482
1481 1492
1482 1483
1482 1491
1483 1484
1484 1485
1485 1486
1486 1487
1487 1488
1488 1490
1489 1500
1490 1491
1491 1492
1492 1493
1493 1494
1494 1495
1495 1496
1496 1497
1497 1498
1498 1499
1499 1501
1500 1511
1501 1502
1502 1503
1503 1504
1503 1513
1504 1505
1504 1512
1505 1506
1506 1507
1506 1576
1507 1508
1508 1509
1508 1574
1509 1510
1509 1573
1510 1512
1510 1572
1511 1522
1512 1513
1513 1514
1514 1515
1515 1516
1516 1517
1517 1518
1518 1519
1519 1520
1520 1521
1521 1523
1522 1533
1523 1524
1524 1525
1525 1526
1526 1527
1527 1528
1528 1529
1529 1530
1529 1554
1530 1531
1530 1553
1531 1532
1531 1552
1532 1534
1532 1551
1533 1544
1533 1833
1534 1535
1535 1536
1536 1537
1536 1548
1537 1538
1537 1547
1538 1539
1538 1546
1539 1540
1540 1541
1541 1542
1542 1543
1542 1619
1543 1545
1544 1556
1544 1822
1545 1546
1546 1547
1547 1548
1548 1549
1549 1550
1550 1551
1551 1552
1552 1553
1553 1554
1554 1557
1555 1666
1555 2437
1556 1567
1556 1811
1557 1558
1558 1559
1558 1568
1559 1560
1559 1566
1560 1561
1560 1565
1561 1562
1562 1563
1563 1564
1564 1565
1565 1566
1566 1568
1567 1578
1567 1800
1568 1569
1569 1570
1570 1571
1571 1572
1572 1573
1573 1574
1574 1575
1575 1576
1576 1577
1577 1579
1578 1589
1579 1580
1580 1581
1581 1582
1582 1583
1583 1584
1583 1612
1584 1585
1584 1610
1585 1586
1585 1609
1586 1587
1586 1608
1587 1588
1587 1607
1588 1590
1588 1606
1589 1600
1590 1591
1590 1605
1591 1592
1592 1593
1592 1604
1593 1594
1593 1603
1594 1595
1595 1596
1596 1597
1596 2327
1597 1598
1597 2326
1598 1599
1598 2325
1599 1601
1599 2324
1600 1611
1601 1602
1602 1603
1603 1604
1604 1605
1605 1606
1606 1607
1607 1608
1608 1609
1609 1610
1610 1612
1611 1622
1612 1613
1613 1614
1614 1615
1615 1616
1616 1617
1617 1618
1618 1619
1619 1620
1620 1621
1621 1623
1622 1633
1623 1624
1624 1625
1625 1626
1626 1627
1627 1628
1628 1629
1629 1630
1630 1631
1631 1632
1632 1634
1633 1644
1634 1635
1635 1636
1636 1637
1637 1638
1638 1639
1639 1640
1640 1641
1641 1642
1642 1643
1643 1645
1644 1655
1644 1733
1645 1646
1646 1647
1647 1648
1647 1699
1648 1649
1648 1697
1649 1650
1649 1695
1650 1651
1650 1694
1651 1652
1651 1693
1652 1653
1653 1654
1653 1692
1654 1656
1655 1667
1655 1722
1656 1657
1656 1687
1657 1658
1657 1686
1658 1659
1658 1685
1659 1660
1659 1684
1660 1661
1660 1683
1661 1662
1661 1682
1662 1663
1663 1664
1664 1665
1665 1668
1665 1677
1666 1777
1667 1678
1668 1669
1668 1676
1669 1670
1670 1671
1671 1672
1672 1673
1673 1674
1674 1675
1675 1676
1676 1677
1677 1679
1678 1689
1679 1680
1680 1681
1681 1682
1682 1683
1683 1684
1684 1685
1685 1686
1686 1687
1687 1688
1688 1690
1689 1700
1690 1691
1691 1692
1692 1693
1693 1694
1694 1695
1695 1696
1696 1697
1697 1698
1698 1699
1699 1701
1700 1711
1701 1702
1702 1703
1703 1704
1704 1705
1705 1706
1706 1707
1707 1708
1707 1791
1708 1709
1708 1788
1709 1710
1709 1787
1710 1712
1710 1786
1711 1722
1712 1713
1713 1714
1713 1782
1714 1715
1714 1779
1715 1716
1715 1776
1716 1717
1716 1775
1717 1718
1717 1774
1718 1719
1718 1773
1719 1720
1720 1721
1721 1723
1721 1749
1722 1733
1723 1724
1723 1748
1724 1725
1724 1747
1725 1726
1725 1743
1726 1727
1726 1742
1727 1728
1727 1741
1728 1729
1728 1740
1729 1730
1729 1739
1730 1731
1730 1738
1731 1732
1732 1734
1733 1744
1734 1735
1735 1736
1736 1737
1737 1738
1738 1739
1739 1740
1740 1741
1741 1742
1742 1743
1743 1745
1744 1755
1745 1746
1746 1747
1747 1748
1748 1749
1749 1750
1750 1751
1751 1752
1751 1767
1752 1753
1752 1765
1753 1754
1753 1764
1754 1756
1754 1763
1755 1766
1756 1757
1756 1762
1757 1758
1758 1759
1759 1760
1760 1761
1761 1762
1762 1763
1763 1764
1764 1765
1765 1767
1766 1778
1767 1768
1768 1769
1769 1770
1770 1771
1771 1772
1772 1773
1773 1774
1774 1775
1775 1776
1776 1779
1777 1888
1778 1789
1779 1780
1780 1781
1781 1782
1782 1783
1783 1784
1784 1785
1785 1786
1786 1787
1787 1788
1788 1790
1789 1800
1790 1791
1791 1792
1792 1793
1793 1794
1794 1795
1795 1796
1796 1797
1797 1798
1797 1817
1798 1799
1798 1816
1799 1801
1799 1815
1800 1811
1801 1802
1801 1814
1802 1803
1802 1812
1803 1804
1803 1810
1804 1805
1804 1809
1805 1806
1806 1807
1807 1808
1808 1809
1809 1810
1810 1812
1811 1822
1812 1813
1813 1814
1814 1815
1815 1816
1816 1817
1817 1818
1818 1819
1819 1820
1820 1821
1820 2699
1821 1823
1822 1833
1823 1824
1824 1825
1825 1826
1826 1827
1827 1828
1828 1829
1829 1830
1830 1831
1831 1832
1832 1834
1833 1844
1834 1835
1835 1836
1836 1837
1837 1838
1838 1839
1839 1840
1839 2007
1840 1841
1841 1842
1842 1843
1843 1845
1843 2019
1844 1855
1845 1846
1845 2018
1846 1847
1846 2017
1847 1848
1847 2016
1848 1849
1848 2015
1849 1850
1849 2014
1850 1851
1850 2013
1851 1852
1852 1853
1853 1854
1854 1856
1854 2004
1855 1866
1856 1857
1856 2003
1857 1858
1857 2002
1858 1859
1858 2001
1859 1860
1860 1861
1861 1862
1861 1893
1862 1863
1862 1892
1863 1864
1863 1891
1864 1865
1864 1890
1865 1867
1865 1887
1866 1877
1867 1868
1867 1886
1868 1869
1868 1885
1869 1870
1870 1871
1871 1872
1872 1873
1873 1874
1874 1875
1874 1880
1875 1876
1876 1878
1877 1889
1877 2338
1878 1879
1879 1880
1880 1881
1881 1882
1882 1883
1883 1884
1884 1885
1885 1886
1886 1887
1887 1890
1888 1999
1889 1900
1889 2337
1890 1891
1891 1892
1892 1893
1893 1894
1894 1895
1895 1896
1895 1956
1896 1897
1896 1954
1897 1898
1897 1953
1898 1899
1898 1952
1899 1901
1899 1951
1900 1911
1900 2336
1901 1902
1902 1903
1903 1904
1904 1905
1904 1949
1905 1906
1905 1948
1906 1907
1906 1947
1907 1908
1907 1946
1908 1909
1909 1910
1910 1912
1911 1922
1911 2276
1912 1913
1912 1941
1913 1914
1913 1940
1914 1915
1914 1939
1915 1916
1915 1938
1916 1917
1916 1937
1917 1918
1917 1934
1918 1919
1918 1932
1919 1920
1919 1931
1920 1921
1920 1930
1921 1923
1921 1929
1922 1933
1923 1924
1923 1928
1924 1925
1925 1926
1926 1927
1927 1928
1928 1929
1929 1930
1930 1931
1931 1932
1932 1934
1933 1944
1934 1935
1935 1936
1936 1937
1937 1938
1938 1939
1939 1940
1940 1941
1941 1942
1942 1943
1943 1945
1944 1955
1945 1946
1946 1947
1947 1948
1948 1949
1949 1950
1950 1951
1951 1952
1952 1953
1953 1954
1954 1956
1955 1966
1955 2141
1956 1957
1957 1958
1958 1959
1959 1960
1960 1961
1960 1997
1961 1962
1961 1996
1962 1963
1962 1995
1963 1964
1964 1965
1965 1967
1966 1977
1966 2140
1967 1968
1968 1969
1968 1990
1969 1970
1969 1989
1970 1971
1970 1987
1971 1972
1971 1986
1972 1973
1973 1974
1974 1975
1975 1976
1976 1978
1977 1988
1977 2139
1978 1979
1979 1980
1980 1981
1981 1982
1982 1983
1983 1984
1984 1985
1985 1986
1986 1987
1987 1989
1988 2000
1988 2133
1989 1990
1990 1991
1991 1992
1992 1993
1993 1994
1994 1995
1995 1996
1996 1997
1997 1998
1998 2001
1999 2110
2000 2011
2000 2122
2001 2002
2002 2003
2003 2004
2004 2005
2005 2006
2006 2007
2007 2008
2008 2009
2009 2010
2010 2012
2011 2022
2011 2111
2012 2013
2013 2014
2014 2015
2015 2016
2016 2017
2017 2018
2018 2019
2019 2020
2020 2021
2020 2131
2021 2023
2022 2033
2022 2099
2023 2024
2023 2035
2024 2025
2024 2034
2025 2026
2025 2032
2026 2027
2026 2031
2027 2028
2028 2029
2029 2030
2030 2031
2031 2032
2032 2034
2033 2044
2033 2088
2034 2035
2035 2036
2036 2037
2037 2038
2038 2039
2039 2040
2040 2041
2040 2127
2041 2042
2041 2126
2042 2043
2042 2125
2043 2045
2043 2124
2044 2055
2045 2046
2045 2062
2046 2047
2046 2061
2047 2048
2047 2060
2048 2049
2048 2059
2049 2050
2049 2058
2050 2051
2051 2052
2052 2053
2053 2054
2054 2056
2055 2066
2056 2057
2057 2058
2058 2059
2059 2060
2060 2061
2061 2062
2062 2063
2063 2064
2064 2065
2065 2067
2066 2077
2067 2068
2068 2069
2068 2119
2069 2070
2069 2118
2070 2071
2070 2117
2071 2072
2071 2115
2072 2073
2072 2114
2073 2074
2073 2113
2074 2075
2074 2112
2075 2076
2075 2109
2076 2078
2077 2088
2078 2079
2078 2106
2079 2080
2079 2105
2080 2081
2080 2104
2081 2082
2082 2083
2083 2084
2084 2085
2085 2086
2085 2100
2086 2087
2086 2098
2087 2089
2087 2097
2088 2099
2089 2090
2089 2096
2090 2091
2090 2095
2091 2092
2092 2093
2093 2094
2094 2095
2095 2096
2096 2097
2097 2098
2098 2100
2099 2111
2100 2101
2101 2102
2102 2103
2103 2104
2104 2105
2105 2106
2106 2107
2107 2108
2108 2109
2109 2112
2110 2146
2111 2122
2112 2113
2113 2114
2114 2115
2115 2116
2116 2117
2117 2118
2118 2119
2119 2120
2120 2121
2121 2123
2122 2133
2123 2124
2124 2125
2125 2126
2126 2127
2127 2128
2128 2129
2129 2130
2130 2131
2131 2132
2132 2134
2132 2700
2133 2139
2134 2135
2134 2589
2135 2136
2135 2478
2136 2137
2136 2367
2137 2138
2137 2256
2138 2256
2139 2140
2140 2141
2141 2142
2142 2143
2143 2144
2144 2145
2145 2147
2146 2157
2146 2430
2147 2148
2147 2314
2148 2149
2149 2150
2149 2275
2150 2151
2150 2274
2151 2152
2151 2273
2152 2153
2152 2272
2153 2154
2153 2269
2154 2155
2154 2267
2155 2156
2155 2266
2156 2158
2156 2265
2157 2168
2157 2392
2158 2159
2158 2264
2159 2160
2160 2161
2161 2162
2162 2163
2163 2164
2164 2165
2164 2262
2165 2166
2165 2261
2166 2167
2166 2260
2167 2169
2167 2259
2168 2179
2168 2391
2169 2170
2170 2171
2171 2172
2172 2173
2173 2174
2174 2175
2175 2176
2176 2177
2176 2258
2177 2178
2177 2255
2178 2180
2178 2254
2179 2190
2180 2181
2180 2253
2181 2182
2181 2252
2182 2183
2182 2251
2183 2184
2183 2250
2184 2185
2184 2249
2185 2186
2185 2248
2186 2187
2186 2247
2187 2188
2188 2189
2188 2242
2189 2191
2189 2241
2190 2201
2191 2192
2191 2240
2192 2193
2193 2194
2194 2195
2195 2196
2195 2213
2196 2197
2197 2198
2197 2211
2198 2199
2198 2210
2199 2200
2199 2209
2200 2202
2200 2208
2201 2212
2201 2359
2202 2203
2203 2204
2204 2205
2205 2206
2206 2207
2207 2208
2208 2209
2209 2210
2210 2211
2211 2213
2212 2223
2212 2358
2213 2214
2214 2215
2214 2232
2215 2216
2215 2231
2216 2217
2216 2220
2217 2218
2218 2219
2219 2220
2220 2221
2221 2222
2222 2224
2222 2236
2223 2234
2223 2355
2224 2225
2224 2235
2225 2226
2225 2233
2226 2227
2227 2228
2228 2229
2229 2230
2230 2231
2231 2232
2232 2233
2233 2235
2234 2245
2234 2354
2235 2236
2236 2237
2237 2238
2238 2239
2239 2240
2240 2241
2241 2242
2242 2243
2243 2244
2244 2246
2245 2257
2245 2353
2246 2247
2247 2248
2248 2249
2249 2250
2250 2251
2251 2252
2252 2253
2253 2254
2254 2255
2255 2258
2256 2367
2257 2268
2257 2352
2258 2259
2259 2260
2260 2261
2261 2262
2262 2263
2263 2264
2264 2265
2265 2266
2266 2267
2267 2269
2268 2279
2268 2351
2269 2270
2270 2271
2271 2272
2272 2273
2273 2274
2274 2275
2275 2276
2276 2277
2277 2278
2278 2280
2279 2290
2279 2350
2280 2281
2281 2282
2282 2283
2282 2308
2283 2284
2283 2307
2284 2285
2284 2306
2285 2286
2285 2305
2286 2287
2286 2304
2287 2288
2287 2303
2288 2289
2288 2302
2289 2291
2289 2300
2290 2301
2290 2349
2291 2292
2292 2293
2293 2294
2293 2321
2294 2295
2295 2296
2296 2297
2297 2298
2298 2299
2299 2300
2300 2302
2301 2312
2301 2347
2302 2303
2303 2304
2304 2305
2305 2306
2306 2307
2307 2308
2308 2309
2309 2310
2310 2311
2311 2313
2312 2323
2312 2346
2313 2314
2314 2315
2315 2316
2316 2317
2316 2332
2317 2318
2317 2331
2318 2319
2318 2330
2319 2320
2319 2329
2320 2321
2320 2328
2321 2322
2322 2324
2323 2334
2324 2325
2325 2326
2326 2327
2327 2328
2328 2329
2329 2330
2330 2331
2331 2332
2332 2333
2333 2335
2334 2345
2335 2336
2336 2337
2337 2338
2338 2339
2339 2340
2340 2341
2341 2342
2342 2343
2343 2344
2344 2346
2345 2356
2346 2347
2347 2348
2348 2349
2349 2350
2350 2351
2351 2352
2352 2353
2353 2354
2354 2355
2355 2357
2356 2368
2357 2358
2358 2359
2359 2360
2360 2361
2361 2362
2362 2363
2363 2364
2364 2365
2365 2366
2366 2369
2367 2478
2368 2379
2369 2370
2370 2371
2371 2372
2372 2373
2373 2374
2374 2375
2375 2376
2376 2377
2377 2378
2377 2385
2378 2380
2378 2384
2379 2390
2380 2381
2381 2382
2382 2383
2383 2384
2384 2385
2385 2386
2386 2387
2387 2388
2388 2389
2389 2391
2390 2401
2391 2392
2392 2393
2393 2394
2394 2395
2395 2396
2396 2397
2397 2398
2398 2399
2399 2400
2399 2429
2400 2402
2401 2412
2402 2403
2403 2404
2403 2415
2404 2405
2404 2414
2405 2406
2405 2413
2406 2407
2406 2411
2407 2408
2408 2409
2409 2410
2410 2411
2411 2413
2412 2423
2413 2414
2414 2415
2415 2416
2416 2417
2417 2418
2418 2419
2419 2420
2420 2421
2421 2422
2422 2424
2423 2434
2424 2425
2425 2426
2426 2427
2427 2428
2428 2429
2429 2430
2430 2431
2431 2432
2432 2433
2433 2435
2434 2445
2435 2436
2436 2437
2437 2438
2438 2439
2439 2440
2440 2441
2441 2442
2442 2443
2443 2444
2444 2446
2445 2456
2445 2590
2446 2447
2447 2448
2448 2449
2449 2450
2450 2451
2451 2452
2452 2453
2453 2454
2454 2455
2455 2457
2455 2484
2456 2467
2456 2578
2457 2458
2457 2483
2458 2459
2458 2482
2459 2460
2459 2481
2460 2461
2461 2462
2462 2463
2462 2476
2463 2464
2463 2475
2464 2465
2464 2474
2465 2466
2465 2473
2466 2468
2467 2479
2467 2567
2468 2469
2469 2470
2470 2471
2471 2472
2472 2473
2473 2474
2474 2475
2475 2476
2476 2477
2477 2480
2478 2589
2479 2490
2480 2481
2481 2482
2482 2483
2483 2484
2484 2485
2485 2486
2486 2487
2487 2488
2488 2489
2488 2503
2489 2491
2490 2501
2491 2492
2491 2500
2492 2493
2493 2494
2494 2495
2495 2496
2496 2497
2497 2498
2498 2499
2499 2500
2500 2502
2501 2512
2502 2503
2503 2504
2504 2505
2505 2506
2506 2507
2507 2508
2508 2509
2509 2510
2510 2511
2511 2513
2512 2523
2513 2514
2514 2515
2515 2516
2516 2517
2516 2607
2517 2518
2517 2606
2518 2519
2518 2605
2519 2520
2519 2604
2520 2521
2520 2603
2521 2522
2521 2602
2522 2524
2522 2600
2523 2534
2524 2525
2525 2526
2525 2598
2526 2527
2526 2597
2527 2528
2527 2596
2528 2529
2528 2595
2529 2530
2529 2594
2530 2531
2531 2532
2532 2533
2532 2557
2533 2535
2533 2555
2534 2545
2534 2800
2535 2536
2535 2554
2536 2537
2537 2538
2538 2539
2539 2540
2539 2550
2540 2541
2540 2549
2541 2542
2541 2548
2542 2543
2543 2544
2544 2546
2545 2556
2545 2789
2546 2547
2547 2548
2548 2549
2549 2550
2550 2551
2551 2552
2552 2553
2553 2554
2554 2555
2555 2557
2556 2567
2556 2634
2557 2558
2558 2559
2559 2560
2560 2561
2561 2562
2561 2569
2562 2563
2562 2568
2563 2564
2564 2565
2565 2566
2566 2568
2567 2578
2568 2569
2569 2570
2570 2571
2571 2572
2572 2573
2572 2585
2573 2574
2573 2584
2574 2575
2574 2583
2575 2576
2575 2582
2576 2577
2577 2579
2578 2590
2579 2580
2580 2581
2581 2582
2582 2583
2583 2584
2584 2585
2585 2586
2586 2587
2587 2588
2588 2591
2589 2700
2590 2601
2591 2592
2592 2593
2593 2594
2594 2595
2595 2596
2596 2597
2597 2598
2598 2599
2599 2600
2600 2602
2601 2612
2602 2603
2603 2604
2604 2605
2605 2606
2606 2607
2607 2608
2608 2609
2609 2610
2610 2611
2610 2763
2611 2613
2611 2762
2612 2623
2613 2614
2614 2615
2614 2760
2615 2616
2616 2617
2617 2618
2618 2619
2618 2752
2619 2620
2619 2751
2620 2621
2620 2750
2621 2622
2621 2749
2622 2624
2622 2748
2623 2634
2624 2625
2624 2747
2625 2626
2626 2627
2627 2628
2628 2629
2629 2630
2630 2631
2630 2724
2631 2632
2631 2722
2632 2633
2632 2721
2633 2635
2633 2720
2634 2645
2635 2636
2635 2719
2636 2637
2636 2718
2637 2638
2637 2717
2638 2639
2638 2716
2639 2640
2639 2715
2640 2641
2640 2713
2641 2642
2642 2643
2642 2677
2643 2644
2643 2676
2644 2646
2644 2675
2645 2656
2646 2647
2646 2673
2647 2648
2648 2649
2649 2650
2650 2651
2650 2669
2651 2652
2651 2668
2652 2653
2652 2666
2653 2654
2653 2665
2654 2655
2654 2664
2655 2657
2655 2663
2656 2667
2657 2658
2658 2659
2659 2660
2660 2661
2661 2662
2662 2663
2663 2664
2664 2665
2665 2666
2666 2668
2667 2678
2668 2669
2669 2670
2670 2671
2671 2672
2672 2673
2673 2674
2674 2675
2675 2676
2676 2677
2677 2679
2678 2689
2679 2680
2680 2681
2681 2682
2682 2683
2682 2709
2683 2684
2683 2708
2684 2685
2684 2707
2685 2686
2686 2687
2686 2706
2687 2688
2687 2705
2688 2690
2688 2704
2689 2701
2690 2691
2690 2703
2691 2692
2691 2702
2692 2693
2693 2694
2694 2695
2695 2696
2696 2697
2697 2698
2698 2699
2699 2702
2700 2811
2701 2712
2702 2703
2703 2704
2704 2705
2705 2706
2706 2707
2707 2708
2708 2709
2709 2710
2710 2711
2711 2713
2712 2723
2713 2714
2714 2715
2715 2716
2716 2717
2717 2718
2718 2719
2719 2720
2720 2721
2721 2722
2722 2724
2723 2734
2724 2725
2725 2726
2726 2727
2726 2743
2727 2728
2728 2729
2728 2739
2729 2730
2729 2738
2730 2731
2730 2737
2731 2732
2732 2733
2733 2735
2734 2745
2735 2736
2736 2737
2737 2738
2738 2739
2739 2740
2740 2741
2741 2742
2742 2743
2743 2744
2744 2746
2745 2756
2746 2747
2747 2748
2748 2749
2749 2750
2750 2751
2751 2752
2752 2753
2753 2754
2754 2755
2755 2757
2756 2767
2756 2889
2757 2758
2758 2759
2759 2760
2760 2761
2761 2762
2762 2763
2763 2764
2764 2765
2765 2766
2766 2768
2767 2778
2767 2878
2768 2769
2769 2770
2770 2771
2771 2772
2772 2773
2773 2774
2774 2775
2775 2776
2776 2777
2777 2779
2777 2792
2778 2789
2778 2867
2779 2780
2779 2791
2780 2781
2780 2790
2781 2782
2781 2788
2782 2783
2782 2787
2783 2784
2784 2785
2785 2786
2786 2787
2787 2788
2788 2790
2789 2800
2790 2791
2791 2792
2792 2793
2793 2794
2793 2910
2794 2795
2794 2909
2795 2796
2795 2907
2796 2797
2796 2906
2797 2798
2797 2905
2798 2799
2798 2904
2799 2801
2799 2903
2800 2812
2801 2802
2801 2902
2802 2803
2802 2901
2803 2804
2804 2805
2805 2806
2806 2807
2806 2897
2807 2808
2807 2896
2808 2809
2808 2895
2809 2810
2809 2894
2810 2813
2810 2893
2812 2823
2813 2814
2813 2891
2814 2815
2814 2890
2815 2816
2815 2888
2816 2817
2816 2887
2817 2818
2818 2819
2819 2820
2820 2821
2821 2822
2822 2824
2822 2881
2823 2834
2824 2825
2824 2879
2825 2826
2825 2877
2826 2827
2827 2828
2828 2829
2829 2830
2829 2874
2830 2831
2830 2873
2831 2832
2831 2872
2832 2833
2832 2871
2833 2835
2833 2870
2834 2845
2835 2836
2835 2869
2836 2837
2836 2868
2837 2838
2837 2866
2838 2839
2839 2840
2840 2841
2841 2842
2841 2862
2842 2843
2842 2861
2843 2844
2843 2859
2844 2846
2844 2858
2845 2856
2846 2847
2846 2857
2847 2848
2847 2855
2848 2849
2848 2854
2849 2850
2850 2851
2851 2852
2852 2853
2853 2854
2854 2855
2855 2857
2856 2867
2857 2858
2858 2859
2859 2860
2860 2861
2861 2862
2862 2863
2863 2864
2864 2865
2865 2866
2866 2868
2867 2878
2868 2869
2869 2870
2870 2871
2871 2872
2872 2873
2873 2874
2874 2875
2875 2876
2876 2877
2877 2879
2878 2889
2879 2880
2880 2881
2881 2882
2882 2883
2883 2884
2884 2885
2885 2886
2886 2887
2887 2888
2888 2890
2889 2900
2890 2891
2891 2892
2892 2893
2893 2894
2894 2895
2895 2896
2896 2897
2897 2898
2898 2899
2899 2901
2900 2911
2901 2902
2902 2903
2903 2904
2904 2905
2905 2906
2906 2907
2907 2908
2908 2909
2909 2910
2910 2912
2912 2913
2913 2914
2914 2915
2915 2916
2916 2917
2917 2918
2918 2919
2919 2920
2920 2921
